Geographic Exponential Decay
40 97 281 93 133 235 206 184 137 103 260 40 274 286 180 76 287 170 272 25 210 160 190 293 209 104 229 255 214 301 8 238 252 242 166 63 208 114 115 147 119
p edge 320 329
e 0 119 75.0
e 1 283 1.0
e 1 0 1.0
e 2 192 7.0
e 2 1 1.0
e 3 214 31.0
e 3 2 1.0
e 4 287 54.0
e 4 3 2.0
e 5 23 1.0
e 5 4 2.0
e 6 190 22.0
e 6 5 1.0
e 7 35 4.0
e 7 6 2.0
e 8 196 59.0
e 8 211 72.0
e 8 269 74.0
e 8 39 57.0
e 8 58 44.0
e 8 7 3.0
e 9 318 2.0
e 9 8 12.0
e 10 252 60.0
e 10 121 17.0
e 10 9 18.0
e 11 174 2.0
e 11 10 18.0
e 12 221 1.0
e 12 11 1.0
e 13 38 4.0
e 13 12 4.0
e 14 77 2.0
e 14 13 1.0
e 15 16 6.0
e 15 14 1.0
e 17 149 1.0
e 17 15 2.0
e 18 54 5.0
e 18 17 1.0
e 19 291 5.0
e 19 18 12.0
e 20 239 1.0
e 20 19 2.0
e 21 231 3.0
e 21 20 1.0
e 22 225 4.0
e 22 21 2.0
e 24 127 2.0
e 24 22 1.0
e 25 315 16.0
e 25 105 12.0
e 25 148 36.0
e 25 236 6.0
e 25 265 75.0
e 25 24 7.0
e 26 78 11.0
e 26 25 76.0
e 27 270 2.0
e 27 26 1.0
e 28 162 1.0
e 28 27 4.0
e 29 253 1.0
e 29 28 1.0
e 30 298 3.0
e 30 29 11.0
e 31 32 9.0
e 31 266 5.0
e 31 30 12.0
e 33 47 1.0
e 33 31 20.0
e 34 215 5.0
e 34 33 3.0
e 36 187 8.0
e 36 34 5.0
e 37 254 2.0
e 37 36 3.0
e 40 126 78.0
e 40 301 45.0
e 40 188 47.0
e 40 245 75.0
e 40 181 90.0
e 41 292 2.0
e 41 37 4.0
e 42 317 5.0
e 42 41 6.0
e 43 44 1.0
e 43 42 6.0
e 45 302 1.0
e 45 43 1.0
e 46 205 5.0
e 46 45 4.0
e 48 49 1.0
e 48 46 7.0
e 50 301 67.0
e 51 232 4.0
e 51 48 11.0
e 52 296 19.0
e 52 129 12.0
e 52 51 23.0
e 53 55 1.0
e 53 52 4.0
e 56 255 38.0
e 57 153 6.0
e 57 53 2.0
e 59 60 2.0
e 59 57 1.0
e 61 62 1.0
e 61 59 2.0
e 63 85 85.0
e 63 275 90.0
e 63 64 83.0
e 63 65 86.0
e 63 218 25.0
e 63 61 60.0
e 66 67 6.0
e 66 63 86.0
e 68 69 2.0
e 68 66 3.0
e 70 82 7.0
e 70 68 1.0
e 71 130 1.0
e 71 70 1.0
e 72 73 4.0
e 72 71 5.0
e 74 84 6.0
e 74 72 1.0
e 75 272 83.0
e 76 106 1.0
e 76 250 53.0
e 76 219 74.0
e 76 79 40.0
e 76 204 61.0
e 76 74 3.0
e 80 262 3.0
e 80 76 68.0
e 81 131 5.0
e 81 80 2.0
e 83 86 1.0
e 83 81 1.0
e 87 228 5.0
e 87 83 5.0
e 88 89 12.0
e 88 87 5.0
e 90 311 1.0
e 90 88 1.0
e 91 281 26.0
e 92 300 10.0
e 92 90 2.0
e 93 94 38.0
e 93 103 67.0
e 93 95 9.0
e 93 96 28.0
e 93 256 75.0
e 95 97 99.0
e 97 136 5.0
e 97 233 24.0
e 97 98 80.0
e 97 99 52.0
e 100 276 1.0
e 100 92 2.0
e 101 115 96.0
e 102 103 37.0
e 103 104 65.0
e 103 154 51.0
e 103 244 23.0
e 104 107 82.0
e 104 114 84.0
e 104 319 51.0
e 104 316 56.0
e 108 116 1.0
e 108 100 1.0
e 109 110 10.0
e 109 108 1.0
e 111 242 6.0
e 112 189 5.0
e 112 109 5.0
e 113 114 75.0
e 114 115 90.0
e 114 216 95.0
e 114 217 4.0
e 115 117 9.0
e 115 118 16.0
e 115 119 64.0
e 119 152 81.0
e 119 120 91.0
e 119 122 18.0
e 123 124 5.0
e 123 112 2.0
e 125 126 6.0
e 128 132 1.0
e 128 123 2.0
e 133 134 68.0
e 133 280 75.0
e 133 195 10.0
e 133 194 82.0
e 133 135 37.0
e 133 128 20.0
e 137 138 40.0
e 137 240 67.0
e 137 255 11.0
e 137 278 69.0
e 137 271 8.0
e 139 279 3.0
e 139 133 32.0
e 140 255 45.0
e 141 246 4.0
e 141 139 3.0
e 142 277 2.0
e 142 141 1.0
e 143 249 2.0
e 143 142 1.0
e 144 145 13.0
e 144 143 3.0
e 145 146 13.0
e 145 175 4.0
e 147 264 26.0
e 147 197 91.0
e 147 234 62.0
e 147 150 50.0
e 147 281 100.0
e 151 152 15.0
e 155 287 90.0
e 156 190 58.0
e 157 312 2.0
e 157 144 4.0
e 158 219 13.0
e 159 160 19.0
e 160 190 99.0
e 160 161 17.0
e 160 163 75.0
e 160 198 30.0
e 164 297 2.0
e 164 157 11.0
e 165 237 1.0
e 165 164 6.0
e 166 167 56.0
e 166 199 90.0
e 166 168 84.0
e 166 272 54.0
e 166 169 6.0
e 170 226 46.0
e 170 171 64.0
e 170 220 37.0
e 170 222 40.0
e 170 172 72.0
e 171 173 49.0
e 171 267 20.0
e 176 177 2.0
e 176 165 1.0
e 178 179 9.0
e 179 180 41.0
e 179 182 7.0
e 180 183 67.0
e 180 184 84.0
e 180 185 87.0
e 180 186 41.0
e 184 190 54.0
e 184 191 88.0
e 184 193 75.0
e 184 200 97.0
e 190 201 63.0
e 202 241 10.0
e 202 176 12.0
e 203 214 1.0
e 206 235 12.0
e 206 207 55.0
e 206 208 5.0
e 206 209 50.0
e 206 210 95.0
e 208 209 72.0
e 208 210 33.0
e 208 212 36.0
e 208 213 2.0
e 209 263 23.0
e 209 210 69.0
e 209 258 72.0
e 210 299 69.0
e 210 214 58.0
e 214 223 79.0
e 214 224 89.0
e 226 227 8.0
e 229 230 45.0
e 229 235 29.0
e 229 238 62.0
e 229 242 83.0
e 229 243 63.0
e 235 238 81.0
e 235 242 76.0
e 235 243 33.0
e 238 242 64.0
e 238 247 70.0
e 238 248 18.0
e 242 259 79.0
e 251 252 74.0
e 252 255 17.0
e 252 257 33.0
e 252 260 67.0
e 255 260 8.0
e 260 261 74.0
e 260 267 68.0
e 260 268 90.0
e 272 273 76.0
e 272 274 100.0
e 272 281 61.0
e 274 281 41.0
e 274 282 2.0
e 274 284 70.0
e 274 285 32.0
e 281 286 93.0
e 286 287 76.0
e 286 288 8.0
e 286 289 94.0
e 286 290 49.0
e 287 314 48.0
e 287 293 71.0
e 293 294 20.0
e 293 295 92.0
e 293 301 19.0
e 293 303 15.0
e 301 303 39.0
e 301 304 12.0
e 305 306 1.0
e 305 202 1.0
e 307 308 2.0
e 307 305 1.0
e 309 310 3.0
e 309 307 5.0
e 313 309 1.0
